c --- [ banner ] -------------------------------------------------------------
c 
c CaDiCaL SAT Solver
c Copyright (c) 2016-2023 A. Biere, M. Fleury, N. Froleyks, K. Fazekas, F. Pollitt
c 
c Version 1.9.5
c g++ (Ubuntu 11.4.0-1ubuntu1~22.04) 11.4.0 -Wall -Wextra -O3 -DNDEBUG -static
c Thu Mar 7 06:16:21 CET 2024 Linux pc101447 6.5.0-17-generic x86_64
c 
c --- [ limit ] --------------------------------------------------------------
c 
c setting time limit to 3600 seconds real time (due to '-t 3600')
c 
c --- [ parsing input ] ------------------------------------------------------
c 
c reading DIMACS file from '/home/oliveras/SAT-comp-2023//1a40d2d8c589799a0d267cae03fcd4c5-SCPC-800-40.cnf'
c opening file to read '/home/oliveras/SAT-comp-2023//1a40d2d8c589799a0d267cae03fcd4c5-SCPC-800-40.cnf'
c found 'p cnf 800 33490' header
c parsed 33490 clauses in 0.03 seconds process time
c 
c --- [ options ] ------------------------------------------------------------
c 
c   --seed=1                       (different from default '0')
c 
c --- [ solving ] ------------------------------------------------------------
c 
c time measured in process time since initialization
c 
c  seconds  reductions  redundant  irredundant
c         MB    restarts       trail     variables
c          level   conflicts       glue      remaining
c 
c *  0.03  5  0 0   0    0    0  0% 0 33490 800 100%
c {  0.03  5  0 0   0    0    0  0% 0 33490 800 100%
c -  0.06  5 20 1   1  300  171 91% 18 33490 800 100%
c -  0.10  7 20 2   5  900  421 91% 18 33490 800 100%
c }  0.10  7 20 2   5 1001  495 91% 18 33490 800 100%
c [  0.10  7  0 2   5 1001  495  0% 0 33490 800 100%
c O  0.11  7 17 2   5 1002  496 93% 17 33490 800 100%
c -  0.15  7 21 3   5 1801  675 92% 19 33490 800 100%
c ]  0.22  7 24 3   6 3001 1553 91% 20 33490 800 100%
c {  0.22  7 20 3   6 3001 1553 91% 18 33490 800 100%
c -  0.22  7 20 4   6 3001 1087 91% 18 33490 800 100%
c F  0.22  7 20 4   6 3005 1091 91% 18 33490 800 100%
c -  0.31  7 21 5  29 4502 1206 92% 19 33490 800 100%
c #  0.42  7 21 5  51 6007 2113 92% 19 33490 800 100%
c -  0.44  7 21 6  52 6303 1456 91% 19 33490 800 100%
c }  0.48  7 21 6  52 7003 1980 91% 19 33490 800 100%
c [  0.48  7 24 6  52 7003 1980 91% 20 33490 800 100%
c -  0.56  7 23 7  53 8403 1926 91% 20 33490 800 100%
c I  0.63  7 26 7  54 10008 3203 91% 21 33490 800 100%
c s  0.71  8 58 7  55 10778 3817 91% 37 33490 800 100%
c 
c  seconds  reductions   redundant   irredundant
c         MB    restarts        trail      variables
c          level    conflicts       glue       remaining
c 
c w  0.73  8 58 7  55 10778 3814 91% 37 33490 800 100%
c s  0.77  8 58 7  55 10778 3799 91% 37 33490 800 100%
c ^  0.78  8 58 7  55 10778 3799 91% 37 33490 800 100%
c -  0.78  9 58 8  55 10804 2531 91% 37 33490 800 100%
c -  0.96  9 81 9  57 13504 3074 91% 51 33490 800 100%
c ]  1.06  9 86 9  57 15003 4431 91% 54 33490 800 100%
c {  1.06  9 21 9  57 15003 4431 91% 19 33490 800 100%
c B  1.09  9 21 9  59 15010 4438 91% 19 33490 800 100%
c -  1.17  9 21 10 105 16504 3242 92% 19 33490 800 100%
c -  1.33  8 21 11 170 19805 2902 92% 19 33490 800 100%
c W  1.41  8 21 11 176 21013 3647 92% 19 33490 800 100%
c -  1.52  9 21 12 195 23405 3120 92% 19 33490 800 100%
c -  1.71 11 21 13 226 27307 3336 92% 19 33490 800 100%
c F  1.75 11 21 13 226 28014 3721 92% 19 33490 800 100%
c }  1.91 11 21 13 233 31005 5821 92% 19 33490 800 100%
c [  1.91 11 86 13 233 31005 5821 91% 54 33490 800 100%
c -  1.94 11 83 14 233 31508 3808 91% 53 33490 800 100%
c s  2.00 11 78 14 233 32331 4133 91% 50 33490 800 100%
c s  2.07 11 78 14 233 32331 4083 91% 50 33490 800 100%
c ^  2.07 11 78 14 233 32331 4083 91% 50 33490 800 100%
c 
c  seconds  reductions    redundant   irredundant
c         MB     restarts        trail      variables
c          level     conflicts       glue       remaining
c 
c -  2.25 11 64 15 236 36009 4332 91% 42 33490 800 100%
c B  2.25 11 64 15 236 36017 4340 91% 42 33490 800 100%
c -  2.57  9 84 16 239 40810 5484 91% 52 33490 800 100%
c W  2.86  9 78 16 240 45019 9131 91% 49 33490 800 100%
c -  2.92  8 76 17 240 45910 6176 91% 48 33490 800 100%
c -  3.23  8 66 18 241 51312 5728 91% 43 33490 800 100%
c O  3.41  8 61 18 242 55020 8652 91% 41 33490 800 100%
c -  3.51 10 59 19 244 57012 5825 91% 39 33490 800 100%
c ]  3.81 10 53 19 247 63005 9970 92% 36 33490 800 100%
c {  3.81 10 21 19 247 63005 9970 92% 19 33490 800 100%
c -  3.82 12 21 20 247 63015 6136 92% 19 33490 800 100%
c s  3.92 12 21 20 283 64657 7072 92% 19 33490 800 100%
c s  3.98 12 21 20 283 64657 7040 92% 19 33490 800 100%
c ^  3.99 12 21 20 283 64657 7040 92% 19 33490 800 100%
c B  4.06 12 21 20 297 66021 7882 92% 19 33490 800 100%
c -  4.22 12 21 21 316 69316 5657 92% 19 33490 800 100%
c -  4.56 12 21 22 341 75917 5560 92% 19 33490 800 100%
c W  4.68 12 21 22 369 78022 6820 92% 19 33490 800 100%
c -  4.91 12 21 23 471 82818 5708 92% 19 33490 800 100%
c -  5.26 12 21 24 521 90020 5789 92% 19 33490 800 100%
c 
c  seconds  reductions    redundant   irredundant
c         MB     restarts        trail      variables
c          level     conflicts       glue       remaining
c 
c #  5.30 12 21 24 540 91023 6411 92% 19 33490 800 100%
c -  5.61 12 21 25 632 97524 6258 92% 19 33490 800 100%
c B  5.99 12 21 25 768 105024 10887 92% 19 33490 800 100%
c -  6.01 12 21 26 788 105325 6476 92% 19 33490 800 100%
c s  6.14 12 21 26 854 107759 7770 92% 19 33490 800 100%
c s  6.21 12 21 26 854 107759 7761 92% 19 33490 800 100%
c ^  6.22 12 21 26 854 107759 7761 92% 19 33490 800 100%
c -  6.50 12 21 27 889 113427 6698 92% 19 33490 800 100%
c W  6.85 12 21 27 936 120027 11219 92% 19 33490 800 100%
c -  6.94 12 21 28 942 121827 7493 92% 19 33490 800 100%
c }  7.20 12 21 28 964 127006 10863 92% 19 33490 800 100%
c [  7.20 12 53 28 964 127006 10863 92% 36 33490 800 100%
c -  7.38 12 50 29 965 130529 7956 91% 35 33490 800 100%
c B  7.63 12 47 29 969 136030 12298 91% 33 33490 800 100%
c -  7.81 12 47 30 971 139530 9828 91% 33 33490 800 100%
c -  8.35 12 45 31 973 148833 10504 91% 32 33490 800 100%
c W  8.59 12 43 31 974 153032 13803 91% 31 33490 800 100%
c -  8.90 16 49 32 974 158436 11440 91% 34 33490 800 100%
c s  9.11 16 52 32 974 161635 14299 92% 35 33490 800 100%
c w  9.14 16 52 32 974 161635 14277 92% 35 33490 800 100%
c 
c  seconds  reductions      redundant   irredundant
c         MB     restarts          trail      variables
c          level     conflicts         glue       remaining
c 
c s  9.19 16 52 32 974 161635 14244 92% 35 33490 800 100%
c ^  9.20 16 52 32 974 161635 14244 92% 35 33490 800 100%
c -  9.63 16 53 33 974 168341 12106 92% 36 33490 800 100%
c I  9.81 16 53 33 976 171034 14492 92% 36 33490 800 100%
c - 10.44 18 75 34 981 178544 13031 91% 47 33490 800 100%
c - 11.28 17 77 35 987 189045 12987 91% 48 33490 800 100%
c B 11.35 17 77 35 988 190035 13862 91% 48 33490 800 100%
c - 11.93 15 77 36 989 199845 13486 91% 48 33490 800 100%
c W 12.64 15 73 36 995 210037 21891 92% 46 33490 800 100%
c - 12.70 18 73 37 995 210946 13076 92% 46 33490 800 100%
c - 13.30 18 66 38 1002 222346 11900 92% 43 33490 800 100%
c s 13.57 18 64 38 1003 226288 14914 92% 42 33490 800 100%
c w 13.60 18 64 38 1003 226288 14903 92% 42 33490 800 100%
c s 13.65 18 64 38 1003 226288 14893 92% 42 33490 800 100%
c O 13.91 18 62 38 1004 231038 18065 92% 41 33490 800 100%
c - 14.08 18 61 39 1004 234046 11915 92% 40 33490 800 100%
c - 14.73 19 57 40 1005 246048 12767 92% 38 33490 800 100%
c B 15.11 19 55 40 1006 253040 18341 92% 37 33490 800 100%
c ] 15.22 19 54 40 1006 255006 19733 92% 37 33490 800 100%
c { 15.22 19 21 40 1006 255006 19733 92% 19 33490 800 100%
c 
c  seconds  reductions       redundant   irredundant
c         MB     restarts           trail      variables
c          level      conflicts         glue       remaining
c 
c - 15.40 19 21 41 1097 258350 13006 92% 19 33490 800 100%
c - 16.03 19 21 42 1331 270952 11263 92% 19 33490 800 100%
c F 16.30 19 21 42 1387 276042 14706 92% 19 33490 800 100%
c - 16.69 19 21 43 1501 283854 11288 92% 19 33490 800 100%
c - 17.34 19 21 44 1596 297058 11101 92% 19 33490 800 100%
c B 17.48 19 21 44 1622 300043 12979 92% 19 33490 800 100%
c - 17.99 19 21 45 1733 310558 11257 92% 19 33490 800 100%
c - 18.66 19 21 46 1862 324358 11351 92% 19 33490 800 100%
c W 18.74 19 21 46 1864 325045 11774 92% 19 33490 800 100%
c - 19.40 19 21 47 1986 338458 11601 92% 19 33490 800 100%
c # 20.01 19 21 47 2037 351046 19635 92% 19 33490 800 100%
c - 20.10 19 21 48 2047 352859 12500 92% 19 33490 800 100%
c - 20.84 19 21 49 2141 367561 12643 92% 18 33490 800 100%
c B 21.37 19 21 49 2214 378048 19234 92% 18 33490 800 100%
c - 21.60 19 21 50 2249 382565 13031 92% 18 33490 800 100%
c - 22.38 19 21 51 2375 397865 13532 92% 18 33490 800 100%
c W 22.85 19 21 51 2453 406049 18779 92% 18 33490 800 100%
c - 23.22 19 21 52 2499 413465 13640 92% 18 33490 800 100%
c - 24.03 19 21 53 2551 429368 14317 92% 18 33490 800 100%
c F 24.32 19 21 53 2609 435051 18081 92% 18 33490 800 100%
c 
c  seconds  reductions       redundant   irredundant
c         MB     restarts           trail      variables
c          level      conflicts         glue       remaining
c 
c - 24.84 20 21 54 2745 445568 14554 92% 18 33490 800 100%
c - 25.69 20 21 55 2845 462068 14647 92% 18 33490 800 100%
c B 25.84 20 21 55 2861 465053 16537 92% 18 33490 800 100%
c - 26.52 20 21 56 3048 478868 14270 92% 18 33490 800 100%
c - 27.39 20 21 57 3185 495968 14829 92% 18 33490 800 100%
c } 27.42 20 21 57 3185 496054 14879 92% 18 33490 800 100%
c 1 27.42 20 21 57 3185 496054 14879 92% 18 33490 800 100%
c 
c --- [ result ] -------------------------------------------------------------
c 
s SATISFIABLE
v -1 -2 -3 -4 -5 -6 -7 -8 -9 -10 -11 -12 -13 -14 -15 -16 -17 -18 -19 -20 -21
v -22 -23 -24 -25 -26 -27 -28 -29 30 -31 -32 -33 -34 -35 -36 -37 -38 -39 -40
v 41 42 -43 -44 -45 -46 -47 -48 49 -50 -51 -52 -53 -54 -55 -56 -57 -58 -59 -60
v -61 -62 -63 -64 -65 -66 -67 -68 -69 -70 -71 -72 -73 -74 -75 -76 -77 -78 -79
v -80 -81 -82 83 -84 85 -86 -87 -88 -89 -90 -91 -92 -93 -94 -95 -96 97 -98 -99
v -100 -101 -102 -103 -104 -105 -106 -107 -108 -109 -110 -111 -112 -113 114
v -115 -116 -117 -118 -119 -120 -121 -122 -123 -124 -125 -126 -127 128 -129
v -130 -131 -132 -133 -134 -135 -136 -137 -138 -139 -140 -141 -142 -143 -144
v -145 -146 -147 -148 -149 -150 -151 -152 -153 -154 -155 -156 -157 -158 -159
v -160 -161 -162 -163 -164 -165 -166 -167 -168 -169 -170 -171 -172 -173 -174
v -175 -176 -177 -178 -179 -180 -181 -182 -183 -184 185 186 -187 -188 -189
v -190 -191 -192 -193 -194 -195 -196 -197 -198 -199 200 -201 -202 -203 -204
v -205 -206 -207 208 -209 -210 -211 -212 -213 -214 -215 -216 -217 -218 -219
v -220 -221 -222 -223 -224 -225 -226 -227 -228 -229 -230 -231 -232 -233 -234
v -235 -236 237 -238 -239 -240 -241 -242 -243 -244 -245 -246 -247 248 -249
v -250 -251 -252 -253 -254 -255 256 -257 -258 -259 -260 -261 262 -263 -264
v -265 -266 -267 -268 -269 -270 -271 -272 -273 -274 -275 -276 -277 -278 -279
v -280 -281 -282 -283 -284 -285 -286 287 -288 -289 -290 291 -292 293 -294 -295
v 296 -297 298 -299 -300 -301 -302 -303 -304 -305 306 -307 -308 -309 -310 311
v -312 -313 -314 -315 -316 -317 -318 -319 -320 -321 -322 -323 -324 -325 -326
v -327 -328 -329 -330 -331 -332 -333 -334 -335 -336 -337 -338 -339 -340 -341
v -342 -343 344 -345 -346 -347 -348 -349 -350 -351 -352 -353 -354 -355 -356
v -357 -358 -359 -360 -361 -362 -363 -364 -365 -366 -367 -368 -369 -370 -371
v 372 -373 -374 -375 -376 -377 -378 -379 -380 -381 -382 -383 -384 -385 -386
v -387 -388 -389 -390 -391 -392 -393 -394 -395 -396 -397 -398 -399 -400 -401
v -402 -403 -404 -405 -406 -407 -408 -409 -410 -411 -412 -413 -414 -415 -416
v -417 -418 -419 -420 -421 -422 -423 424 -425 426 -427 -428 -429 -430 -431
v -432 -433 -434 -435 -436 -437 -438 -439 -440 -441 -442 -443 -444 -445 -446
v -447 -448 -449 -450 -451 -452 -453 -454 -455 -456 -457 -458 -459 -460 -461
v -462 -463 -464 -465 -466 -467 -468 -469 -470 -471 -472 -473 -474 -475 -476
v -477 -478 -479 -480 -481 -482 -483 -484 -485 -486 -487 -488 -489 -490 -491
v -492 -493 -494 -495 -496 -497 -498 -499 -500 -501 -502 -503 -504 -505 -506
v -507 -508 -509 -510 -511 -512 -513 -514 -515 -516 517 -518 -519 520 -521
v -522 -523 -524 -525 -526 -527 -528 -529 -530 -531 -532 -533 -534 -535 -536
v -537 -538 -539 -540 -541 -542 -543 -544 545 -546 -547 -548 -549 -550 -551
v -552 -553 -554 -555 -556 557 -558 -559 -560 -561 -562 -563 -564 -565 -566
v -567 -568 -569 -570 -571 -572 -573 -574 -575 -576 -577 -578 -579 -580 -581
v -582 -583 -584 -585 586 -587 -588 -589 -590 -591 -592 -593 -594 -595 -596
v -597 -598 -599 -600 -601 -602 -603 -604 -605 -606 -607 -608 -609 -610 -611
v -612 -613 -614 -615 -616 617 -618 -619 -620 -621 -622 -623 -624 -625 -626
v -627 -628 -629 -630 -631 -632 -633 -634 -635 -636 -637 -638 -639 -640 -641
v -642 -643 -644 -645 -646 -647 -648 -649 -650 -651 -652 -653 -654 -655 656
v -657 -658 -659 -660 -661 -662 -663 -664 -665 -666 667 -668 -669 -670 -671
v -672 -673 -674 -675 -676 -677 -678 -679 -680 -681 -682 683 -684 -685 686 687
v -688 -689 -690 -691 -692 -693 -694 -695 -696 -697 -698 -699 -700 -701 -702
v -703 -704 -705 -706 -707 -708 -709 -710 -711 -712 -713 -714 -715 -716 -717
v -718 719 -720 -721 722 723 -724 725 -726 -727 -728 -729 -730 731 732 -733
v -734 -735 -736 -737 -738 -739 -740 -741 -742 -743 -744 -745 -746 -747 -748
v -749 -750 -751 -752 -753 -754 -755 756 -757 758 -759 -760 -761 -762 -763
v -764 -765 -766 -767 -768 -769 -770 -771 -772 -773 -774 -775 -776 -777 -778
v -779 -780 -781 -782 -783 -784 -785 -786 -787 -788 -789 -790 -791 -792 -793
v -794 -795 -796 -797 -798 -799 -800 0
c 
c --- [ run-time profiling ] -------------------------------------------------
c 
c process time taken by individual solving procedures
c (percentage relative to process time for solving)
c 
c        26.51   96.79% search
c        16.17   59.04% unstable
c        10.03   36.61% stable
c         0.88    3.21% simplify
c         0.31    1.12% walk
c         0.24    0.88% probe
c         0.23    0.83% subsume
c         0.11    0.39% elim
c         0.10    0.38% vivify
c         0.05    0.16% ternary
c         0.03    0.10% parse
c         0.00    0.02% lucky
c   =================================
c        27.39   99.90% solve
c 
c last line shows process time for solving
c (percentage relative to total process time)
c 
c --- [ statistics ] ---------------------------------------------------------
c 
c chronological:            106160        21.40 %  of conflicts
c conflicts:                496054     18111.92    per second
c decisions:                593225     21659.83    per second
c learned:                  483006        97.37 %  per conflict
c learned_lits:           68381452       100.00 %  learned literals
c minimized:                     0         0.00 %  learned literals
c shrunken:               52078223        76.16 %  learned literals
c minishrunken:             974347         1.42 %  learned literals
c otfs:                       1125         0.23 %  of conflict
c propagations:           24847445         0.91 M  per second
c reduced:                  329194        66.36 %  per conflict
c rephased:                     31     16001.74    interval
c restarts:                   3185       155.75    interval
c stabilizing:                   4        34.27 %  of conflicts
c subsumed:                 138927        26.90 %  of all clauses
c strengthened:               7028         1.36 %  of all clauses
c trail reuses:                  0         0.00 %  of incremental calls
c vivified:                     54         0.01 %  of all clauses
c walked:                        9     55117.11    interval
c 
c seconds are measured in process time for solving
c 
c --- [ resources ] ----------------------------------------------------------
c 
c total process time since initialization:        27.42    seconds
c total real time since initialization:           27.42    seconds
c maximum resident set size of process:           22.78    MB
c 
c --- [ shutting down ] ------------------------------------------------------
c 
c exit 10
